
Gurobi 9.0.3 (win64) logging started Sat Feb  5 17:52:52 2022

Changed value of parameter LogFile to logs\CRVRP_5-2-7-100_4_1.LOG
   Prev: logs\CRVRP_5-2-7-100_4_0.LOG  Default: 
Changed value of parameter Seed to 1313859297
   Prev: 430547272  Min: 0  Max: 2000000000  Default: 0
Parameter Threads unchanged
   Value: 2  Min: 0  Max: 1024  Default: 0
Parameter TimeLimit unchanged
   Value: 60.0  Min: 0.0  Max: inf  Default: inf
Parameter Symmetry unchanged
   Value: 2  Min: -1  Max: 2  Default: -1
Parameter Cuts unchanged
   Value: 2  Min: -1  Max: 3  Default: -1
Parameter PreDepRow unchanged
   Value: 1  Min: -1  Max: 1  Default: -1
Parameter ScaleFlag unchanged
   Value: 1  Min: -1  Max: 3  Default: -1
Parameter NormAdjust unchanged
   Value: 0  Min: -1  Max: 3  Default: -1
Gurobi Optimizer version 9.0.3 build v9.0.3rc0 (win64)
Optimize a model with 1001 rows, 810 columns and 4006 nonzeros
Model fingerprint: 0x10dd05f9
Variable types: 32 continuous, 778 integer (522 binary)
Coefficient statistics:
  Matrix range     [1e+00, 1e+06]
  Objective range  [1e+00, 1e+00]
  Bounds range     [1e+00, 1e+04]
  RHS range        [1e+00, 1e+06]
Presolve removed 616 rows and 515 columns
Presolve time: 0.02s
Presolved: 385 rows, 295 columns, 2069 nonzeros
Variable types: 15 continuous, 280 integer (230 binary)

Root relaxation: objective 3.372064e+02, 250 iterations, 0.01 seconds

    Nodes    |    Current Node    |     Objective Bounds      |     Work
 Expl Unexpl |  Obj  Depth IntInf | Incumbent    BestBd   Gap | It/Node Time

     0     0  337.20636    0   37          -  337.20636      -     -    0s
H    0     0                    1199.4335705  337.20636  71.9%     -    0s
H    0     0                    1172.8600815  337.20636  71.2%     -    0s
     0     0  363.29546    0   44 1172.86008  363.29546  69.0%     -    0s
H    0     0                    1043.5685090  363.29546  65.2%     -    0s
     0     0  374.49309    0   59 1043.56851  374.49309  64.1%     -    0s
H    0     0                     900.3199845  374.49309  58.4%     -    0s
     0     0  374.49309    0   59  900.31998  374.49309  58.4%     -    0s
     0     0  380.04823    0   54  900.31998  380.04823  57.8%     -    0s
H    0     0                     756.6762365  380.04823  49.8%     -    0s
     0     0  380.27638    0   49  756.67624  380.27638  49.7%     -    0s
     0     0  380.27638    0   51  756.67624  380.27638  49.7%     -    0s
     0     0  384.74522    0   52  756.67624  384.74522  49.2%     -    0s
     0     0  384.74522    0   55  756.67624  384.74522  49.2%     -    0s
     0     0  393.02159    0   52  756.67624  393.02159  48.1%     -    0s
H    0     0                     755.6856531  393.02159  48.0%     -    0s
     0     0  393.90502    0   51  755.68565  393.90502  47.9%     -    0s
     0     0  394.05111    0   52  755.68565  394.05111  47.9%     -    0s
     0     0  394.05111    0   52  755.68565  394.05111  47.9%     -    0s
     0     0  394.05111    0   50  755.68565  394.05111  47.9%     -    0s
H    0     0                     751.8884258  394.05111  47.6%     -    0s
     0     0  394.05111    0   50  751.88843  394.05111  47.6%     -    0s
     0     0  394.05111    0   48  751.88843  394.05111  47.6%     -    0s
     0     0  394.05111    0   37  751.88843  394.05111  47.6%     -    0s
H    0     0                     728.0594814  394.05111  45.9%     -    0s
H    0     0                     695.9423373  394.05111  43.4%     -    0s
H    0     0                     644.6841429  394.05111  38.9%     -    0s
     0     2  394.05111    0   37  644.68414  394.05111  38.9%     -    0s
H   32    36                     597.1440460  399.54198  33.1%  20.6    0s
*  111    96              30     518.5685090  400.59374  22.8%  20.0    0s
H  180   130                     498.6202178  420.08695  15.8%  19.7    0s
*  248   115              22     483.9663032  420.08695  13.2%  17.8    0s
*  305   107              14     477.5968534  421.02549  11.8%  17.1    0s
H  315   107                     473.9663032  421.02549  11.2%  16.8    0s

Cutting planes:
  Gomory: 10
  Cover: 5
  Implied bound: 9
  MIR: 29
  StrongCG: 1
  Flow cover: 63
  Zero half: 8
  RLT: 79
  Relax-and-lift: 22

Explored 502 nodes (8263 simplex iterations) in 0.92 seconds
Thread count was 2 (of 8 available processors)

Solution count 10: 473.966 477.597 483.966 ... 751.888

Optimal solution found (tolerance 1.00e-04)
Best objective 4.739663032251e+02, best bound 4.739663032251e+02, gap 0.0000%
Discarded solution information
